Traveling Salesman Problem/TSP_generados/Aleatorio1620390932_9.tsp
NAME: Aleatorio1620390932_9.tsp
COMMENT: Randomly generated scenario
TYPE: TSP
DIMENSION: 9
EDGE_WEIGHT_TYPE: ATT
NODE_COORD_SECTION
1 4.08 31.39
2 28.42 21.16
3 0.52 47.72
4 46.23 23.13
5 17.59 16.48
6 40.07 46.48
7 46.81 14.42
8 39.0 25.89
9 24.37 19.95
