Traveling Salesman Problem/TSP_generados/Aleatorio1620390932_9.opt.tour
NAME: Aleatorio1620390932_9.opt.tour
COMMENT: Optimal solution for Aleatorio1620390932_9 (144.91877364869123)
TYPE: TOUR
DIMENSION: 9
TOUR_SECTION
1 5 9 2 7 4 8 6 3
-1
EOF
